c clasp version 2.1.1
c Reading from p44.cnf
c Solving...
s SATISFIABLE

c Models        : 1+    
c Time          : 1.643s (Solving: 0.15s 1st Model: 0.14s Unsat: 0.00s)
c CPU Time      : 1.630s
c Choices       : 3713
c Conflicts     : 193
c Restarts      : 0     

c Variables     : 230442 (Eliminated: 72082 Frozen:    0)
c Constraints   : 263718 (Binary: 64.8% Ternary: 34.0% Other:  1.3%)
c Lemmas        : 193    (Binary:  0.0% Ternary:  1.0% Other: 99.0%)
c   Conflict    : 193    (Average Length: 34.6) 
c   Loop        : 0      (Average Length: 0.0) 
c   Other       : 0      (Average Length: 0.0)
c   Deleted     : 0     
